1653802
0,53,12,46,3,47,1,19,64,44,26,16,8,57,14,35,7,67,34,50,38,61,36,52,49,27,58,15,62,23,60,41,2,20,30,43,9,17,56,32,51,13,21,42,45,33,54,25,65,10,6,37,66,63,40,29,24,5,22,48,18,59,28,4,39,55,31,11,0